opl/transportation_CPLEX_C_C++_Python/ASSP3_3.out
Optimal solution of Z= 1506 

x_0:  =     0
x_1:  =     1
x_2:  =    -0
x_3:  =     0
x_4:  =    -0
x_5:  =     1
x_6:  =     1
x_7:  =     0
x_8:  =    -0


CPU time   0.0177
